# Solution for model micodag
# Objective value = 1.7174462523522486e+01
s_0_1 0
s_1_0 0
s_0_2 0
s_2_0 0.316982894060053
s_1_4 0
s_4_1 4.4207365712533786e-01
s_2_3 0
s_3_2 6.6826452806793739e+00
s_2_4 0
s_4_2 0
s_2_5 0
s_5_2 6.6826452806793739e+00
s_4_5 0
s_5_4 3.5651567697137221e-01
s_4_12 0
s_12_4 2.4855608939968832e-01
s_4_13 0
s_13_4 6.5989190968100164e-01
s_5_6 0
s_6_5 4.4773111676826893e-01
s_6_7 0
s_7_6 6.6826452806793739e+00
s_6_8 0
s_8_6 6.6826452806793739e+00
s_6_10 0
s_10_6 6.6826452806793739e+00
s_6_11 0
s_11_6 6.6826452806793739e+00
s_6_14 0
s_14_6 6.6826452806793739e+00
s_7_8 0
s_8_7 1.3122377688849172e+00
s_7_9 0
s_9_7 0
s_8_9 0
s_9_8 1.0392082452738816e-01
s_9_10 0.846614466310645
s_10_9 0
s_10_11 0
s_11_10 4.0858590827950447e-01
s_14_15 0
s_15_14 2.9918198978371713e-01
s_0_0 6.9290265805727369e-01
s_1_1 2.0379927419263941e+00
s_2_2 6.6826452806793739e+00
s_3_3 6.0862132297213023e-01
s_4_4 6.9188982205578320e-01
s_5_5 6.5752586929967372e-01
s_6_6 6.6826452806793739e+00
s_7_7 1.0392084095171947e+00
s_8_8 1.80148156688748
s_9_9 1.5289821977320504e+00
s_10_10 9.5149073617977553e-01
s_11_11 0.947352703742034
s_12_12 6.9388404515692947e-01
s_13_13 1.1503470039744359e+00
s_14_14 1.94292073611994
s_15_15 9.0788796103113079e-01
Gamma_0_0 8.3240774747552315e-01
Gamma_0_1 0
Gamma_0_2 0
Gamma_0_3 0
Gamma_0_4 0
Gamma_0_5 0
Gamma_0_6 0
Gamma_0_7 0
Gamma_0_8 0
Gamma_0_9 0
Gamma_0_10 0
Gamma_0_11 0
Gamma_0_12 0
Gamma_0_13 0
Gamma_0_14 0
Gamma_0_15 0
Gamma_1_0 0
Gamma_1_1 1.4275828318967678e+00
Gamma_1_2 0
Gamma_1_3 0
Gamma_1_4 0
Gamma_1_5 0
Gamma_1_6 0
Gamma_1_7 0
Gamma_1_8 0
Gamma_1_9 0
Gamma_1_10 0
Gamma_1_11 0
Gamma_1_12 0
Gamma_1_13 0
Gamma_1_14 0
Gamma_1_15 0
Gamma_2_0 5.6301233917211335e-01
Gamma_2_1 0
Gamma_2_2 1.0616519414412815e+00
Gamma_2_3 0
Gamma_2_4 0
Gamma_2_5 0
Gamma_2_6 0
Gamma_2_7 0
Gamma_2_8 0
Gamma_2_9 0
Gamma_2_10 0
Gamma_2_11 0
Gamma_2_12 0
Gamma_2_13 0
Gamma_2_14 0
Gamma_2_15 0
Gamma_3_0 0
Gamma_3_1 0
Gamma_3_2 4.7698354072718124e-01
Gamma_3_3 0.780141860799773
Gamma_3_4 0
Gamma_3_5 0
Gamma_3_6 0
Gamma_3_7 0
Gamma_3_8 0
Gamma_3_9 0
Gamma_3_10 0
Gamma_3_11 0
Gamma_3_12 0
Gamma_3_13 0
Gamma_3_14 0
Gamma_3_15 0
Gamma_4_0 0
Gamma_4_1 6.6488619862750786e-01
Gamma_4_2 0
Gamma_4_3 0
Gamma_4_4 8.3179914766473717e-01
Gamma_4_5 0
Gamma_4_6 0
Gamma_4_7 0
Gamma_4_8 0
Gamma_4_9 0
Gamma_4_10 0
Gamma_4_11 0
Gamma_4_12 0
Gamma_4_13 0
Gamma_4_14 0
Gamma_4_15 0
Gamma_5_0 0
Gamma_5_1 0
Gamma_5_2 5.6545545068904879e-01
Gamma_5_3 0
Gamma_5_4 5.9708933751271442e-01
Gamma_5_5 8.1087968854798376e-01
Gamma_5_6 0
Gamma_5_7 0
Gamma_5_8 0
Gamma_5_9 0
Gamma_5_10 0
Gamma_5_11 0
Gamma_5_12 0
Gamma_5_13 0
Gamma_5_14 0
Gamma_5_15 0
Gamma_6_0 0
Gamma_6_1 0
Gamma_6_2 0
Gamma_6_3 0
Gamma_6_4 0
Gamma_6_5 -6.6912713049783790e-01
Gamma_6_6 7.9433765586323390e-01
Gamma_6_7 0
Gamma_6_8 0
Gamma_6_9 0
Gamma_6_10 0
Gamma_6_11 0
Gamma_6_12 0
Gamma_6_13 0
Gamma_6_14 0
Gamma_6_15 0
Gamma_7_0 0
Gamma_7_1 0
Gamma_7_2 0
Gamma_7_3 0
Gamma_7_4 0
Gamma_7_5 0
Gamma_7_6 8.5896137880454582e-01
Gamma_7_7 1.0194157196733797e+00
Gamma_7_8 0
Gamma_7_9 0
Gamma_7_10 0
Gamma_7_11 0
Gamma_7_12 0
Gamma_7_13 0
Gamma_7_14 0
Gamma_7_15 0
Gamma_8_0 0
Gamma_8_1 0
Gamma_8_2 0
Gamma_8_3 0
Gamma_8_4 0
Gamma_8_5 0
Gamma_8_6 -1.0000335782344272e+00
Gamma_8_7 1.1455294709805237e+00
Gamma_8_8 1.3421928203084235e+00
Gamma_8_9 0
Gamma_8_10 0
Gamma_8_11 0
Gamma_8_12 0
Gamma_8_13 0
Gamma_8_14 0
Gamma_8_15 0
Gamma_9_0 0
Gamma_9_1 0
Gamma_9_2 0
Gamma_9_3 0
Gamma_9_4 0
Gamma_9_5 0
Gamma_9_6 0
Gamma_9_7 0
Gamma_9_8 3.2236753020021969e-01
Gamma_9_9 1.2365201970578767e+00
Gamma_9_10 -9.2011655039491869e-01
Gamma_9_11 0
Gamma_9_12 0
Gamma_9_13 0
Gamma_9_14 0
Gamma_9_15 0
Gamma_10_0 0
Gamma_10_1 0
Gamma_10_2 0
Gamma_10_3 0
Gamma_10_4 0
Gamma_10_5 0
Gamma_10_6 3.7457843529759366e-01
Gamma_10_7 0
Gamma_10_8 0
Gamma_10_9 0
Gamma_10_10 0.9754438662372
Gamma_10_11 0
Gamma_10_12 0
Gamma_10_13 0
Gamma_10_14 0
Gamma_10_15 0
Gamma_11_0 0
Gamma_11_1 0
Gamma_11_2 0
Gamma_11_3 0
Gamma_11_4 0
Gamma_11_5 0
Gamma_11_6 -7.9608349648470511e-01
Gamma_11_7 0
Gamma_11_8 0
Gamma_11_9 0
Gamma_11_10 -6.3920724986463207e-01
Gamma_11_11 9.7332045275029255e-01
Gamma_11_12 0
Gamma_11_13 0
Gamma_11_14 0
Gamma_11_15 0
Gamma_12_0 0
Gamma_12_1 0
Gamma_12_2 0
Gamma_12_3 0
Gamma_12_4 -4.9855399847929244e-01
Gamma_12_5 0
Gamma_12_6 0
Gamma_12_7 0
Gamma_12_8 0
Gamma_12_9 0
Gamma_12_10 0
Gamma_12_11 0
Gamma_12_12 8.3299702589921054e-01
Gamma_12_13 0
Gamma_12_14 0
Gamma_12_15 0
Gamma_13_0 0
Gamma_13_1 0
Gamma_13_2 0
Gamma_13_3 0
Gamma_13_4 -8.1233731274699039e-01
Gamma_13_5 0
Gamma_13_6 0
Gamma_13_7 0
Gamma_13_8 0
Gamma_13_9 0
Gamma_13_10 0
Gamma_13_11 0
Gamma_13_12 0
Gamma_13_13 1.0725423087106805e+00
Gamma_13_14 0
Gamma_13_15 0
Gamma_14_0 0
Gamma_14_1 0
Gamma_14_2 0
Gamma_14_3 0
Gamma_14_4 0
Gamma_14_5 0
Gamma_14_6 -8.7929952147376544e-01
Gamma_14_7 0
Gamma_14_8 0
Gamma_14_9 0
Gamma_14_10 0
Gamma_14_11 0
Gamma_14_12 0
Gamma_14_13 0
Gamma_14_14 1.3938869165466548e+00
Gamma_14_15 0
Gamma_15_0 0
Gamma_15_1 0
Gamma_15_2 0
Gamma_15_3 0
Gamma_15_4 0
Gamma_15_5 0
Gamma_15_6 0
Gamma_15_7 0
Gamma_15_8 0
Gamma_15_9 0
Gamma_15_10 0
Gamma_15_11 0
Gamma_15_12 0
Gamma_15_13 0
Gamma_15_14 -5.4697531003119260e-01
Gamma_15_15 0.952831549137166
psi_0 6
psi_1 6
psi_2 5
psi_3 0
psi_4 5
psi_5 4
psi_6 3
psi_7 2
psi_8 1
psi_9 0
psi_10 1
psi_11 0
psi_12 0
psi_13 0
psi_14 1
psi_15 0
g_0_0 0
g_0_1 0
g_0_2 0
g_0_3 0
g_0_4 0
g_0_5 0
g_0_6 0
g_0_7 0
g_0_8 0
g_0_9 0
g_0_10 0
g_0_11 0
g_0_12 0
g_0_13 0
g_0_14 0
g_0_15 0
g_1_0 0
g_1_1 0
g_1_2 0
g_1_3 0
g_1_4 0
g_1_5 0
g_1_6 0
g_1_7 0
g_1_8 0
g_1_9 0
g_1_10 0
g_1_11 0
g_1_12 0
g_1_13 0
g_1_14 0
g_1_15 0
g_2_0 1
g_2_1 0
g_2_2 0
g_2_3 0
g_2_4 0
g_2_5 0
g_2_6 0
g_2_7 0
g_2_8 0
g_2_9 0
g_2_10 0
g_2_11 0
g_2_12 0
g_2_13 0
g_2_14 0
g_2_15 0
g_3_0 0
g_3_1 0
g_3_2 1
g_3_3 0
g_3_4 0
g_3_5 0
g_3_6 0
g_3_7 0
g_3_8 0
g_3_9 0
g_3_10 0
g_3_11 0
g_3_12 0
g_3_13 0
g_3_14 0
g_3_15 0
g_4_0 0
g_4_1 1
g_4_2 0
g_4_3 0
g_4_4 0
g_4_5 0
g_4_6 0
g_4_7 0
g_4_8 0
g_4_9 0
g_4_10 0
g_4_11 0
g_4_12 0
g_4_13 0
g_4_14 0
g_4_15 0
g_5_0 0
g_5_1 0
g_5_2 1
g_5_3 0
g_5_4 1
g_5_5 0
g_5_6 0
g_5_7 0
g_5_8 0
g_5_9 0
g_5_10 0
g_5_11 0
g_5_12 0
g_5_13 0
g_5_14 0
g_5_15 0
g_6_0 0
g_6_1 0
g_6_2 0
g_6_3 0
g_6_4 0
g_6_5 1
g_6_6 0
g_6_7 0
g_6_8 0
g_6_9 0
g_6_10 0
g_6_11 0
g_6_12 0
g_6_13 0
g_6_14 0
g_6_15 0
g_7_0 0
g_7_1 0
g_7_2 0
g_7_3 0
g_7_4 0
g_7_5 0
g_7_6 1
g_7_7 0
g_7_8 0
g_7_9 0
g_7_10 0
g_7_11 0
g_7_12 0
g_7_13 0
g_7_14 0
g_7_15 0
g_8_0 0
g_8_1 0
g_8_2 0
g_8_3 0
g_8_4 0
g_8_5 0
g_8_6 1
g_8_7 1
g_8_8 0
g_8_9 0
g_8_10 0
g_8_11 0
g_8_12 0
g_8_13 0
g_8_14 0
g_8_15 0
g_9_0 0
g_9_1 0
g_9_2 0
g_9_3 0
g_9_4 0
g_9_5 0
g_9_6 0
g_9_7 0
g_9_8 1
g_9_9 0
g_9_10 1
g_9_11 0
g_9_12 0
g_9_13 0
g_9_14 0
g_9_15 0
g_10_0 0
g_10_1 0
g_10_2 0
g_10_3 0
g_10_4 0
g_10_5 0
g_10_6 1
g_10_7 0
g_10_8 0
g_10_9 0
g_10_10 0
g_10_11 0
g_10_12 0
g_10_13 0
g_10_14 0
g_10_15 0
g_11_0 0
g_11_1 0
g_11_2 0
g_11_3 0
g_11_4 0
g_11_5 0
g_11_6 1
g_11_7 0
g_11_8 0
g_11_9 0
g_11_10 1
g_11_11 0
g_11_12 0
g_11_13 0
g_11_14 0
g_11_15 0
g_12_0 0
g_12_1 0
g_12_2 0
g_12_3 0
g_12_4 1
g_12_5 0
g_12_6 0
g_12_7 0
g_12_8 0
g_12_9 0
g_12_10 0
g_12_11 0
g_12_12 0
g_12_13 0
g_12_14 0
g_12_15 0
g_13_0 0
g_13_1 0
g_13_2 0
g_13_3 0
g_13_4 1
g_13_5 0
g_13_6 0
g_13_7 0
g_13_8 0
g_13_9 0
g_13_10 0
g_13_11 0
g_13_12 0
g_13_13 0
g_13_14 0
g_13_15 0
g_14_0 0
g_14_1 0
g_14_2 0
g_14_3 0
g_14_4 0
g_14_5 0
g_14_6 1
g_14_7 0
g_14_8 0
g_14_9 0
g_14_10 0
g_14_11 0
g_14_12 0
g_14_13 0
g_14_14 0
g_14_15 0
g_15_0 0
g_15_1 0
g_15_2 0
g_15_3 0
g_15_4 0
g_15_5 0
g_15_6 0
g_15_7 0
g_15_8 0
g_15_9 0
g_15_10 0
g_15_11 0
g_15_12 0
g_15_13 0
g_15_14 1
g_15_15 0
T_0 3.6686575422211831e-01
T_1 -0.711965373423439
T_2 -1.1965226069162327e-01
T_3 4.9655900603026737e-01
T_4 3.6832855272318454e-01
T_5 4.1927117076173204e-01
T_6 0.460493297717008
T_7 -3.8459278640587513e-02
T_8 -5.8860941906233677e-01
T_9 -4.2460228380004139e-01
T_10 4.9725328310373129e-02
T_11 5.4083811902415846e-02
T_12 3.6545041434150960e-01
T_13 -1.4006363944648115e-01
T_14 -6.6419237497746053e-01
T_15 0.0966342989290041
